c File: instances/24_0.15_1.col
c
c Description: Random graph of size 24 vertices and P(0.15000000000000002) of edges between any two vertices.
p col 24 276
e 1 2
e 1 3
e 1 7
e 1 8
e 1 22
e 2 6
e 2 14
e 2 17
e 2 19
e 3 12
e 3 20
e 4 7
e 4 9
e 4 15
e 5 10
e 5 14
e 5 22
e 5 23
e 5 24
e 6 14
e 6 18
e 6 22
e 7 10
e 7 12
e 7 13
e 7 14
e 7 17
e 7 24
e 8 16
e 8 17
e 8 20
e 9 14
e 9 15
e 9 16
e 10 14
e 10 20
e 10 22
e 11 13
e 11 17
e 13 16
e 15 19
e 17 20
e 19 20
e 19 23
e 20 21
e 21 23
e 23 24